NAME : bier127.tsp
COMMENT : Optimal tour for bier127.tsp
TYPE : TOUR
DIMENSION : 127
Total Length: 122468.23609937132
TOUR_SECTION
1
16
37
36
35
40
43
30
41
14
12
31
27
26
38
39
34
42
28
122
33
32
29
25
80
79
77
18
72
8
19
21
17
22
4
23
24
108
20
15
106
6
114
105
7
120
10
115
13
50
5
121
56
124
52
64
58
100
3
11
9
90
116
60
61
91
62
59
67
73
74
68
71
70
69
75
76
78
117
84
81
126
82
83
101
102
63
119
96
109
88
87
86
85
110
104
125
89
92
99
65
113
66
55
47
53
49
118
48
46
94
112
111
107
127
98
97
123
95
93
103
45
44
54
57
51
2
-1
EOF
